; Benchmark for LTL-sketching problem
(set-logic QF_UF)
(set-info :status unknown)
(declare-fun z_0_0 () Bool)
(declare-fun z_0_1 () Bool)
(declare-fun z_0_2 () Bool)
(declare-fun z_0_8 () Bool)
(declare-fun z_0_9 () Bool)
(declare-fun z_0_11 () Bool)
(declare-fun z_0_16 () Bool)
(declare-fun z_0_17 () Bool)
(declare-fun z_0_18 () Bool)
(declare-fun z_0_19 () Bool)
(declare-fun z_0_22 () Bool)
(declare-fun z_0_24 () Bool)
(declare-fun z_0_26 () Bool)
(declare-fun z_0_27 () Bool)
(declare-fun z_0_28 () Bool)
(declare-fun z_0_32 () Bool)
(declare-fun z_0_33 () Bool)
(declare-fun z_0_35 () Bool)
(declare-fun z_0_36 () Bool)
(declare-fun z_0_38 () Bool)
(declare-fun z_0_40 () Bool)
(declare-fun z_0_41 () Bool)
(declare-fun z_0_42 () Bool)
(declare-fun z_0_50 () Bool)
(declare-fun z_0_51 () Bool)
(declare-fun z_0_52 () Bool)
(declare-fun z_0_56 () Bool)
(declare-fun z_0_58 () Bool)
(declare-fun z_0_60 () Bool)
(declare-fun z_0_61 () Bool)
(declare-fun z_0_63 () Bool)
(declare-fun z_0_64 () Bool)
(declare-fun z_0_67 () Bool)
(declare-fun z_0_69 () Bool)
(declare-fun z_0_70 () Bool)
(declare-fun z_0_72 () Bool)
(declare-fun z_0_73 () Bool)
(declare-fun z_0_76 () Bool)
(declare-fun z_0_77 () Bool)
(declare-fun z_0_78 () Bool)
(declare-fun z_0_80 () Bool)
(declare-fun z_0_81 () Bool)
(declare-fun z_0_83 () Bool)
(declare-fun x_0_G () Bool)
(declare-fun x_0_F () Bool)
(declare-fun x_0_X () Bool)
(declare-fun x_0_! () Bool)
(declare-fun z_1_0 () Bool)
(declare-fun z_1_1 () Bool)
(declare-fun z_1_2 () Bool)
(declare-fun z_1_3 () Bool)
(declare-fun z_1_8 () Bool)
(declare-fun z_1_7 () Bool)
(declare-fun z_1_6 () Bool)
(declare-fun z_1_5 () Bool)
(declare-fun z_1_4 () Bool)
(declare-fun z_0_3 () Bool)
(declare-fun z_0_4 () Bool)
(declare-fun z_0_5 () Bool)
(declare-fun z_0_6 () Bool)
(declare-fun z_0_7 () Bool)
(declare-fun z_1_9 () Bool)
(declare-fun z_1_10 () Bool)
(declare-fun z_1_15 () Bool)
(declare-fun z_1_14 () Bool)
(declare-fun z_1_13 () Bool)
(declare-fun z_1_12 () Bool)
(declare-fun z_1_11 () Bool)
(declare-fun z_0_10 () Bool)
(declare-fun z_0_12 () Bool)
(declare-fun z_0_13 () Bool)
(declare-fun z_0_14 () Bool)
(declare-fun z_0_15 () Bool)
(declare-fun z_1_16 () Bool)
(declare-fun z_1_17 () Bool)
(declare-fun z_1_18 () Bool)
(declare-fun z_1_19 () Bool)
(declare-fun z_1_20 () Bool)
(declare-fun z_1_23 () Bool)
(declare-fun z_1_22 () Bool)
(declare-fun z_1_21 () Bool)
(declare-fun z_0_20 () Bool)
(declare-fun z_0_21 () Bool)
(declare-fun z_0_23 () Bool)
(declare-fun z_1_24 () Bool)
(declare-fun z_1_25 () Bool)
(declare-fun z_1_27 () Bool)
(declare-fun z_1_26 () Bool)
(declare-fun z_0_25 () Bool)
(declare-fun z_1_28 () Bool)
(declare-fun z_1_29 () Bool)
(declare-fun z_1_31 () Bool)
(declare-fun z_1_30 () Bool)
(declare-fun z_0_29 () Bool)
(declare-fun z_0_30 () Bool)
(declare-fun z_0_31 () Bool)
(declare-fun z_1_32 () Bool)
(declare-fun z_1_33 () Bool)
(declare-fun z_1_34 () Bool)
(declare-fun z_0_34 () Bool)
(declare-fun z_1_35 () Bool)
(declare-fun z_1_36 () Bool)
(declare-fun z_1_37 () Bool)
(declare-fun z_0_37 () Bool)
(declare-fun z_1_38 () Bool)
(declare-fun z_1_39 () Bool)
(declare-fun z_0_39 () Bool)
(declare-fun z_1_40 () Bool)
(declare-fun z_1_41 () Bool)
(declare-fun z_1_42 () Bool)
(declare-fun z_1_43 () Bool)
(declare-fun z_1_49 () Bool)
(declare-fun z_1_48 () Bool)
(declare-fun z_1_47 () Bool)
(declare-fun z_1_46 () Bool)
(declare-fun z_1_45 () Bool)
(declare-fun z_1_44 () Bool)
(declare-fun z_0_43 () Bool)
(declare-fun z_0_44 () Bool)
(declare-fun z_0_45 () Bool)
(declare-fun z_0_46 () Bool)
(declare-fun z_0_47 () Bool)
(declare-fun z_0_48 () Bool)
(declare-fun z_0_49 () Bool)
(declare-fun z_1_50 () Bool)
(declare-fun z_1_51 () Bool)
(declare-fun z_1_55 () Bool)
(declare-fun z_1_54 () Bool)
(declare-fun z_1_53 () Bool)
(declare-fun z_1_52 () Bool)
(declare-fun z_0_53 () Bool)
(declare-fun z_0_54 () Bool)
(declare-fun z_0_55 () Bool)
(declare-fun z_1_56 () Bool)
(declare-fun z_1_57 () Bool)
(declare-fun z_0_57 () Bool)
(declare-fun z_1_58 () Bool)
(declare-fun z_1_59 () Bool)
(declare-fun z_1_60 () Bool)
(declare-fun z_0_59 () Bool)
(declare-fun z_1_61 () Bool)
(declare-fun z_1_62 () Bool)
(declare-fun z_0_62 () Bool)
(declare-fun z_1_63 () Bool)
(declare-fun z_1_64 () Bool)
(declare-fun z_1_65 () Bool)
(declare-fun z_1_66 () Bool)
(declare-fun z_0_65 () Bool)
(declare-fun z_0_66 () Bool)
(declare-fun z_1_67 () Bool)
(declare-fun z_1_68 () Bool)
(declare-fun z_0_68 () Bool)
(declare-fun z_1_69 () Bool)
(declare-fun z_1_70 () Bool)
(declare-fun z_1_71 () Bool)
(declare-fun z_0_71 () Bool)
(declare-fun z_1_72 () Bool)
(declare-fun z_1_73 () Bool)
(declare-fun z_1_74 () Bool)
(declare-fun z_1_75 () Bool)
(declare-fun z_0_74 () Bool)
(declare-fun z_0_75 () Bool)
(declare-fun z_1_76 () Bool)
(declare-fun z_1_77 () Bool)
(declare-fun z_1_78 () Bool)
(declare-fun z_1_79 () Bool)
(declare-fun z_0_79 () Bool)
(declare-fun z_1_80 () Bool)
(declare-fun z_1_81 () Bool)
(declare-fun z_1_82 () Bool)
(declare-fun z_0_82 () Bool)
(declare-fun z_1_83 () Bool)
(declare-fun z_1_84 () Bool)
(declare-fun z_1_85 () Bool)
(declare-fun z_0_84 () Bool)
(declare-fun z_0_85 () Bool)
(assert
 z_0_0)
(assert
 z_0_1)
(assert
 z_0_2)
(assert
 z_0_8)
(assert
 z_0_9)
(assert
 z_0_11)
(assert
 z_0_16)
(assert
 z_0_17)
(assert
 (not z_0_18))
(assert
 z_0_19)
(assert
 z_0_22)
(assert
 z_0_24)
(assert
 z_0_26)
(assert
 z_0_27)
(assert
 z_0_28)
(assert
 z_0_32)
(assert
 z_0_33)
(assert
 z_0_35)
(assert
 z_0_36)
(assert
 z_0_38)
(assert
 z_0_40)
(assert
 z_0_41)
(assert
 z_0_42)
(assert
 z_0_50)
(assert
 z_0_51)
(assert
 z_0_52)
(assert
 z_0_56)
(assert
 z_0_58)
(assert
 z_0_60)
(assert
 z_0_61)
(assert
 z_0_63)
(assert
 z_0_64)
(assert
 z_0_67)
(assert
 z_0_69)
(assert
 z_0_70)
(assert
 z_0_72)
(assert
 z_0_73)
(assert
 z_0_76)
(assert
 z_0_77)
(assert
 z_0_78)
(assert
 z_0_80)
(assert
 z_0_81)
(assert
 z_0_83)
(assert
 (or x_0_! x_0_X x_0_F x_0_G))
(assert
 (let (($x15 (not x_0_G)))
 (let (($x13 (not x_0_F)))
 (let (($x19 (or $x13 $x15)))
 (let (($x11 (not x_0_X)))
 (let (($x18 (or $x11 $x15)))
 (let (($x17 (or $x11 $x13)))
 (let (($x10 (not x_0_!)))
 (let (($x16 (or $x10 $x15)))
 (let (($x14 (or $x10 $x13)))
 (let (($x12 (or $x10 $x11)))
 (and $x12 $x14 $x16 $x17 $x18 $x19))))))))))))
(assert
 (=> x_0_! (= z_0_0 (not z_1_0))))
(assert
 (let (($x48 (= z_0_0 z_1_1)))
 (=> x_0_X $x48)))
(assert
 (let (($x51 (or z_1_0 z_1_1)))
 (let (($x52 (= z_0_0 $x51)))
 (=> x_0_F $x52))))
(assert
 (let (($x56 (= z_0_0 (and z_1_0 z_1_1))))
 (=> x_0_G $x56)))
(assert
 (=> x_0_! (= z_0_1 (not z_1_1))))
(assert
 (let (($x66 (= z_0_1 z_1_0)))
 (=> x_0_X $x66)))
(assert
 (=> x_0_F (= z_0_1 (or z_1_1 z_1_0))))
(assert
 (let (($x75 (= z_0_1 (and z_1_1 z_1_0))))
 (=> x_0_G $x75)))
(assert
 (=> x_0_! (= z_0_2 (not z_1_2))))
(assert
 (let (($x87 (= z_0_2 z_1_3)))
 (=> x_0_X $x87)))
(assert
 (let (($x96 (= z_0_2 (or z_1_2 z_1_3 z_1_4 z_1_5 z_1_6 z_1_7 z_1_8))))
 (=> x_0_F $x96)))
(assert
 (let (($x100 (= z_0_2 (and z_1_2 z_1_3 z_1_4 z_1_5 z_1_6 z_1_7 z_1_8))))
 (=> x_0_G $x100)))
(assert
 (=> x_0_! (= z_0_3 (not z_1_3))))
(assert
 (let (($x110 (= z_0_3 z_1_4)))
 (=> x_0_X $x110)))
(assert
 (let (($x114 (= z_0_3 (or z_1_3 z_1_4 z_1_5 z_1_6 z_1_7 z_1_8))))
 (=> x_0_F $x114)))
(assert
 (let (($x118 (= z_0_3 (and z_1_3 z_1_4 z_1_5 z_1_6 z_1_7 z_1_8))))
 (=> x_0_G $x118)))
(assert
 (=> x_0_! (= z_0_4 (not z_1_4))))
(assert
 (let (($x128 (= z_0_4 z_1_5)))
 (=> x_0_X $x128)))
(assert
 (let (($x132 (= z_0_4 (or z_1_4 z_1_5 z_1_6 z_1_7 z_1_8))))
 (=> x_0_F $x132)))
(assert
 (let (($x136 (= z_0_4 (and z_1_4 z_1_5 z_1_6 z_1_7 z_1_8))))
 (=> x_0_G $x136)))
(assert
 (=> x_0_! (= z_0_5 (not z_1_5))))
(assert
 (let (($x146 (= z_0_5 z_1_6)))
 (=> x_0_X $x146)))
(assert
 (let (($x149 (or z_1_5 z_1_6 z_1_7 z_1_8)))
 (let (($x150 (= z_0_5 $x149)))
 (=> x_0_F $x150))))
(assert
 (let (($x154 (= z_0_5 (and z_1_5 z_1_6 z_1_7 z_1_8))))
 (=> x_0_G $x154)))
(assert
 (=> x_0_! (= z_0_6 (not z_1_6))))
(assert
 (let (($x164 (= z_0_6 z_1_7)))
 (=> x_0_X $x164)))
(assert
 (=> x_0_F (= z_0_6 (or z_1_6 z_1_7 z_1_8 z_1_5))))
(assert
 (let (($x173 (= z_0_6 (and z_1_6 z_1_7 z_1_8 z_1_5))))
 (=> x_0_G $x173)))
(assert
 (=> x_0_! (= z_0_7 (not z_1_7))))
(assert
 (let (($x183 (= z_0_7 z_1_8)))
 (=> x_0_X $x183)))
(assert
 (=> x_0_F (= z_0_7 (or z_1_7 z_1_8 z_1_5 z_1_6))))
(assert
 (let (($x192 (= z_0_7 (and z_1_7 z_1_8 z_1_5 z_1_6))))
 (=> x_0_G $x192)))
(assert
 (=> x_0_! (= z_0_8 (not z_1_8))))
(assert
 (let (($x202 (= z_0_8 z_1_5)))
 (=> x_0_X $x202)))
(assert
 (=> x_0_F (= z_0_8 (or z_1_8 z_1_5 z_1_6 z_1_7))))
(assert
 (let (($x211 (= z_0_8 (and z_1_8 z_1_5 z_1_6 z_1_7))))
 (=> x_0_G $x211)))
(assert
 (=> x_0_! (= z_0_9 (not z_1_9))))
(assert
 (let (($x223 (= z_0_9 z_1_10)))
 (=> x_0_X $x223)))
(assert
 (let (($x232 (= z_0_9 (or z_1_9 z_1_10 z_1_11 z_1_12 z_1_13 z_1_14 z_1_15))))
 (=> x_0_F $x232)))
(assert
 (let (($x236 (= z_0_9 (and z_1_9 z_1_10 z_1_11 z_1_12 z_1_13 z_1_14 z_1_15))))
 (=> x_0_G $x236)))
(assert
 (=> x_0_! (= z_0_10 (not z_1_10))))
(assert
 (let (($x246 (= z_0_10 z_1_11)))
 (=> x_0_X $x246)))
(assert
 (let (($x250 (= z_0_10 (or z_1_10 z_1_11 z_1_12 z_1_13 z_1_14 z_1_15))))
 (=> x_0_F $x250)))
(assert
 (let (($x254 (= z_0_10 (and z_1_10 z_1_11 z_1_12 z_1_13 z_1_14 z_1_15))))
 (=> x_0_G $x254)))
(assert
 (=> x_0_! (= z_0_11 (not z_1_11))))
(assert
 (let (($x264 (= z_0_11 z_1_12)))
 (=> x_0_X $x264)))
(assert
 (let (($x268 (= z_0_11 (or z_1_11 z_1_12 z_1_13 z_1_14 z_1_15))))
 (=> x_0_F $x268)))
(assert
 (let (($x272 (= z_0_11 (and z_1_11 z_1_12 z_1_13 z_1_14 z_1_15))))
 (=> x_0_G $x272)))
(assert
 (=> x_0_! (= z_0_12 (not z_1_12))))
(assert
 (let (($x282 (= z_0_12 z_1_13)))
 (=> x_0_X $x282)))
(assert
 (let (($x285 (or z_1_12 z_1_13 z_1_14 z_1_15)))
 (let (($x286 (= z_0_12 $x285)))
 (=> x_0_F $x286))))
(assert
 (let (($x290 (= z_0_12 (and z_1_12 z_1_13 z_1_14 z_1_15))))
 (=> x_0_G $x290)))
(assert
 (=> x_0_! (= z_0_13 (not z_1_13))))
(assert
 (let (($x300 (= z_0_13 z_1_14)))
 (=> x_0_X $x300)))
(assert
 (=> x_0_F (= z_0_13 (or z_1_13 z_1_14 z_1_15 z_1_12))))
(assert
 (let (($x309 (= z_0_13 (and z_1_13 z_1_14 z_1_15 z_1_12))))
 (=> x_0_G $x309)))
(assert
 (=> x_0_! (= z_0_14 (not z_1_14))))
(assert
 (let (($x319 (= z_0_14 z_1_15)))
 (=> x_0_X $x319)))
(assert
 (=> x_0_F (= z_0_14 (or z_1_14 z_1_15 z_1_12 z_1_13))))
(assert
 (let (($x328 (= z_0_14 (and z_1_14 z_1_15 z_1_12 z_1_13))))
 (=> x_0_G $x328)))
(assert
 (=> x_0_! (= z_0_15 (not z_1_15))))
(assert
 (let (($x338 (= z_0_15 z_1_12)))
 (=> x_0_X $x338)))
(assert
 (=> x_0_F (= z_0_15 (or z_1_15 z_1_12 z_1_13 z_1_14))))
(assert
 (let (($x347 (= z_0_15 (and z_1_15 z_1_12 z_1_13 z_1_14))))
 (=> x_0_G $x347)))
(assert
 (=> x_0_! (= z_0_16 (not z_1_16))))
(assert
 (let (($x359 (= z_0_16 z_1_17)))
 (=> x_0_X $x359)))
(assert
 (let (($x364 (= z_0_16 (or z_1_16 z_1_17 z_1_18))))
 (=> x_0_F $x364)))
(assert
 (let (($x368 (= z_0_16 (and z_1_16 z_1_17 z_1_18))))
 (=> x_0_G $x368)))
(assert
 (=> x_0_! (= z_0_17 (not z_1_17))))
(assert
 (let (($x378 (= z_0_17 z_1_18)))
 (=> x_0_X $x378)))
(assert
 (let (($x382 (= z_0_17 (or z_1_17 z_1_18))))
 (=> x_0_F $x382)))
(assert
 (let (($x386 (= z_0_17 (and z_1_17 z_1_18))))
 (=> x_0_G $x386)))
(assert
 (=> x_0_! (= z_0_18 (not z_1_18))))
(assert
 (let (($x396 (= z_0_18 z_1_18)))
 (=> x_0_X $x396)))
(assert
 (=> x_0_F (= z_0_18 (or z_1_18))))
(assert
 (=> x_0_G (= z_0_18 (and z_1_18))))
(assert
 (=> x_0_! (= z_0_19 (not z_1_19))))
(assert
 (let (($x416 (= z_0_19 z_1_20)))
 (=> x_0_X $x416)))
(assert
 (let (($x423 (= z_0_19 (or z_1_19 z_1_20 z_1_21 z_1_22 z_1_23))))
 (=> x_0_F $x423)))
(assert
 (let (($x427 (= z_0_19 (and z_1_19 z_1_20 z_1_21 z_1_22 z_1_23))))
 (=> x_0_G $x427)))
(assert
 (=> x_0_! (= z_0_20 (not z_1_20))))
(assert
 (let (($x437 (= z_0_20 z_1_21)))
 (=> x_0_X $x437)))
(assert
 (let (($x441 (= z_0_20 (or z_1_20 z_1_21 z_1_22 z_1_23))))
 (=> x_0_F $x441)))
(assert
 (let (($x445 (= z_0_20 (and z_1_20 z_1_21 z_1_22 z_1_23))))
 (=> x_0_G $x445)))
(assert
 (=> x_0_! (= z_0_21 (not z_1_21))))
(assert
 (let (($x455 (= z_0_21 z_1_22)))
 (=> x_0_X $x455)))
(assert
 (let (($x458 (or z_1_21 z_1_22 z_1_23)))
 (let (($x459 (= z_0_21 $x458)))
 (=> x_0_F $x459))))
(assert
 (let (($x463 (= z_0_21 (and z_1_21 z_1_22 z_1_23))))
 (=> x_0_G $x463)))
(assert
 (=> x_0_! (= z_0_22 (not z_1_22))))
(assert
 (let (($x473 (= z_0_22 z_1_23)))
 (=> x_0_X $x473)))
(assert
 (=> x_0_F (= z_0_22 (or z_1_22 z_1_23 z_1_21))))
(assert
 (let (($x482 (= z_0_22 (and z_1_22 z_1_23 z_1_21))))
 (=> x_0_G $x482)))
(assert
 (=> x_0_! (= z_0_23 (not z_1_23))))
(assert
 (let (($x492 (= z_0_23 z_1_21)))
 (=> x_0_X $x492)))
(assert
 (=> x_0_F (= z_0_23 (or z_1_23 z_1_21 z_1_22))))
(assert
 (let (($x501 (= z_0_23 (and z_1_23 z_1_21 z_1_22))))
 (=> x_0_G $x501)))
(assert
 (=> x_0_! (= z_0_24 (not z_1_24))))
(assert
 (let (($x513 (= z_0_24 z_1_25)))
 (=> x_0_X $x513)))
(assert
 (=> x_0_F (= z_0_24 (or z_1_24 z_1_25 z_1_26 z_1_27 z_1_0 z_1_1))))
(assert
 (let (($x525 (= z_0_24 (and z_1_24 z_1_25 z_1_26 z_1_27 z_1_0 z_1_1))))
 (=> x_0_G $x525)))
(assert
 (=> x_0_! (= z_0_25 (not z_1_25))))
(assert
 (let (($x535 (= z_0_25 z_1_26)))
 (=> x_0_X $x535)))
(assert
 (=> x_0_F (= z_0_25 (or z_1_25 z_1_26 z_1_27 z_1_0 z_1_1))))
(assert
 (let (($x545 (= z_0_25 (and z_1_25 z_1_26 z_1_27 z_1_0 z_1_1))))
 (=> x_0_G $x545)))
(assert
 (=> x_0_! (= z_0_26 (not z_1_26))))
(assert
 (let (($x555 (= z_0_26 z_1_27)))
 (=> x_0_X $x555)))
(assert
 (=> x_0_F (= z_0_26 (or z_1_26 z_1_27 z_1_0 z_1_1))))
(assert
 (let (($x565 (= z_0_26 (and z_1_26 z_1_27 z_1_0 z_1_1))))
 (=> x_0_G $x565)))
(assert
 (=> x_0_! (= z_0_27 (not z_1_27))))
(assert
 (let (($x575 (= z_0_27 z_1_0)))
 (=> x_0_X $x575)))
(assert
 (=> x_0_F (= z_0_27 (or z_1_27 z_1_0 z_1_1))))
(assert
 (let (($x585 (= z_0_27 (and z_1_27 z_1_0 z_1_1))))
 (=> x_0_G $x585)))
(assert
 (=> x_0_! (= z_0_28 (not z_1_28))))
(assert
 (let (($x597 (= z_0_28 z_1_29)))
 (=> x_0_X $x597)))
(assert
 (let (($x603 (= z_0_28 (or z_1_28 z_1_29 z_1_30 z_1_31 z_1_23 z_1_21 z_1_22))))
 (=> x_0_F $x603)))
(assert
 (let (($x609 (= z_0_28 (and z_1_28 z_1_29 z_1_30 z_1_31 z_1_23 z_1_21 z_1_22))))
 (=> x_0_G $x609)))
(assert
 (=> x_0_! (= z_0_29 (not z_1_29))))
(assert
 (let (($x619 (= z_0_29 z_1_30)))
 (=> x_0_X $x619)))
(assert
 (=> x_0_F (= z_0_29 (or z_1_29 z_1_30 z_1_31 z_1_23 z_1_21 z_1_22))))
(assert
 (let (($x629 (= z_0_29 (and z_1_29 z_1_30 z_1_31 z_1_23 z_1_21 z_1_22))))
 (=> x_0_G $x629)))
(assert
 (=> x_0_! (= z_0_30 (not z_1_30))))
(assert
 (let (($x639 (= z_0_30 z_1_31)))
 (=> x_0_X $x639)))
(assert
 (=> x_0_F (= z_0_30 (or z_1_30 z_1_31 z_1_23 z_1_21 z_1_22))))
(assert
 (let (($x649 (= z_0_30 (and z_1_30 z_1_31 z_1_23 z_1_21 z_1_22))))
 (=> x_0_G $x649)))
(assert
 (=> x_0_! (= z_0_31 (not z_1_31))))
(assert
 (let (($x659 (= z_0_31 z_1_23)))
 (=> x_0_X $x659)))
(assert
 (=> x_0_F (= z_0_31 (or z_1_31 z_1_23 z_1_21 z_1_22))))
(assert
 (let (($x669 (= z_0_31 (and z_1_31 z_1_23 z_1_21 z_1_22))))
 (=> x_0_G $x669)))
(assert
 (=> x_0_! (= z_0_32 (not z_1_32))))
(assert
 (let (($x681 (= z_0_32 z_1_33)))
 (=> x_0_X $x681)))
(assert
 (=> x_0_F (= z_0_32 (or z_1_32 z_1_33 z_1_34 z_1_1 z_1_0))))
(assert
 (let (($x692 (= z_0_32 (and z_1_32 z_1_33 z_1_34 z_1_1 z_1_0))))
 (=> x_0_G $x692)))
(assert
 (=> x_0_! (= z_0_33 (not z_1_33))))
(assert
 (let (($x702 (= z_0_33 z_1_34)))
 (=> x_0_X $x702)))
(assert
 (=> x_0_F (= z_0_33 (or z_1_33 z_1_34 z_1_1 z_1_0))))
(assert
 (let (($x712 (= z_0_33 (and z_1_33 z_1_34 z_1_1 z_1_0))))
 (=> x_0_G $x712)))
(assert
 (=> x_0_! (= z_0_34 (not z_1_34))))
(assert
 (let (($x722 (= z_0_34 z_1_1)))
 (=> x_0_X $x722)))
(assert
 (=> x_0_F (= z_0_34 (or z_1_34 z_1_1 z_1_0))))
(assert
 (let (($x732 (= z_0_34 (and z_1_34 z_1_1 z_1_0))))
 (=> x_0_G $x732)))
(assert
 (=> x_0_! (= z_0_35 (not z_1_35))))
(assert
 (let (($x744 (= z_0_35 z_1_36)))
 (=> x_0_X $x744)))
(assert
 (let (($x749 (= z_0_35 (or z_1_35 z_1_36 z_1_37))))
 (=> x_0_F $x749)))
(assert
 (let (($x753 (= z_0_35 (and z_1_35 z_1_36 z_1_37))))
 (=> x_0_G $x753)))
(assert
 (=> x_0_! (= z_0_36 (not z_1_36))))
(assert
 (let (($x763 (= z_0_36 z_1_37)))
 (=> x_0_X $x763)))
(assert
 (let (($x767 (= z_0_36 (or z_1_36 z_1_37))))
 (=> x_0_F $x767)))
(assert
 (let (($x771 (= z_0_36 (and z_1_36 z_1_37))))
 (=> x_0_G $x771)))
(assert
 (=> x_0_! (= z_0_37 (not z_1_37))))
(assert
 (let (($x781 (= z_0_37 z_1_37)))
 (=> x_0_X $x781)))
(assert
 (=> x_0_F (= z_0_37 (or z_1_37))))
(assert
 (=> x_0_G (= z_0_37 (and z_1_37))))
(assert
 (=> x_0_! (= z_0_38 (not z_1_38))))
(assert
 (let (($x801 (= z_0_38 z_1_39)))
 (=> x_0_X $x801)))
(assert
 (=> x_0_F (= z_0_38 (or z_1_38 z_1_39 z_1_15 z_1_12 z_1_13 z_1_14))))
(assert
 (let (($x811 (= z_0_38 (and z_1_38 z_1_39 z_1_15 z_1_12 z_1_13 z_1_14))))
 (=> x_0_G $x811)))
(assert
 (=> x_0_! (= z_0_39 (not z_1_39))))
(assert
 (let (($x821 (= z_0_39 z_1_15)))
 (=> x_0_X $x821)))
(assert
 (=> x_0_F (= z_0_39 (or z_1_39 z_1_15 z_1_12 z_1_13 z_1_14))))
(assert
 (let (($x831 (= z_0_39 (and z_1_39 z_1_15 z_1_12 z_1_13 z_1_14))))
 (=> x_0_G $x831)))
(assert
 (=> x_0_! (= z_0_40 (not z_1_40))))
(assert
 (let (($x843 (= z_0_40 z_1_41)))
 (=> x_0_X $x843)))
(assert
 (let (($x847 (= z_0_40 (or z_1_40 z_1_41 z_1_39 z_1_15 z_1_12 z_1_13 z_1_14))))
 (=> x_0_F $x847)))
(assert
 (let (($x853 (= z_0_40 (and z_1_40 z_1_41 z_1_39 z_1_15 z_1_12 z_1_13 z_1_14))))
 (=> x_0_G $x853)))
(assert
 (=> x_0_! (= z_0_41 (not z_1_41))))
(assert
 (let (($x863 (= z_0_41 z_1_39)))
 (=> x_0_X $x863)))
(assert
 (=> x_0_F (= z_0_41 (or z_1_41 z_1_39 z_1_15 z_1_12 z_1_13 z_1_14))))
(assert
 (let (($x873 (= z_0_41 (and z_1_41 z_1_39 z_1_15 z_1_12 z_1_13 z_1_14))))
 (=> x_0_G $x873)))
(assert
 (=> x_0_! (= z_0_42 (not z_1_42))))
(assert
 (let (($x885 (= z_0_42 z_1_43)))
 (=> x_0_X $x885)))
(assert
 (let (($x894 (or z_1_42 z_1_43 z_1_44 z_1_45 z_1_46 z_1_47 z_1_48 z_1_49)))
 (let (($x895 (= z_0_42 $x894)))
 (=> x_0_F $x895))))
(assert
 (let (($x898 (and z_1_42 z_1_43 z_1_44 z_1_45 z_1_46 z_1_47 z_1_48 z_1_49)))
 (let (($x899 (= z_0_42 $x898)))
 (=> x_0_G $x899))))
(assert
 (=> x_0_! (= z_0_43 (not z_1_43))))
(assert
 (let (($x909 (= z_0_43 z_1_44)))
 (=> x_0_X $x909)))
(assert
 (let (($x913 (= z_0_43 (or z_1_43 z_1_44 z_1_45 z_1_46 z_1_47 z_1_48 z_1_49))))
 (=> x_0_F $x913)))
(assert
 (let (($x917 (= z_0_43 (and z_1_43 z_1_44 z_1_45 z_1_46 z_1_47 z_1_48 z_1_49))))
 (=> x_0_G $x917)))
(assert
 (=> x_0_! (= z_0_44 (not z_1_44))))
(assert
 (let (($x927 (= z_0_44 z_1_45)))
 (=> x_0_X $x927)))
(assert
 (let (($x931 (= z_0_44 (or z_1_44 z_1_45 z_1_46 z_1_47 z_1_48 z_1_49))))
 (=> x_0_F $x931)))
(assert
 (let (($x935 (= z_0_44 (and z_1_44 z_1_45 z_1_46 z_1_47 z_1_48 z_1_49))))
 (=> x_0_G $x935)))
(assert
 (=> x_0_! (= z_0_45 (not z_1_45))))
(assert
 (let (($x945 (= z_0_45 z_1_46)))
 (=> x_0_X $x945)))
(assert
 (let (($x949 (= z_0_45 (or z_1_45 z_1_46 z_1_47 z_1_48 z_1_49))))
 (=> x_0_F $x949)))
(assert
 (let (($x953 (= z_0_45 (and z_1_45 z_1_46 z_1_47 z_1_48 z_1_49))))
 (=> x_0_G $x953)))
(assert
 (=> x_0_! (= z_0_46 (not z_1_46))))
(assert
 (let (($x963 (= z_0_46 z_1_47)))
 (=> x_0_X $x963)))
(assert
 (let (($x966 (or z_1_46 z_1_47 z_1_48 z_1_49)))
 (let (($x967 (= z_0_46 $x966)))
 (=> x_0_F $x967))))
(assert
 (let (($x971 (= z_0_46 (and z_1_46 z_1_47 z_1_48 z_1_49))))
 (=> x_0_G $x971)))
(assert
 (=> x_0_! (= z_0_47 (not z_1_47))))
(assert
 (let (($x981 (= z_0_47 z_1_48)))
 (=> x_0_X $x981)))
(assert
 (=> x_0_F (= z_0_47 (or z_1_47 z_1_48 z_1_49 z_1_46))))
(assert
 (let (($x990 (= z_0_47 (and z_1_47 z_1_48 z_1_49 z_1_46))))
 (=> x_0_G $x990)))
(assert
 (=> x_0_! (= z_0_48 (not z_1_48))))
(assert
 (let (($x1000 (= z_0_48 z_1_49)))
 (=> x_0_X $x1000)))
(assert
 (=> x_0_F (= z_0_48 (or z_1_48 z_1_49 z_1_46 z_1_47))))
(assert
 (let (($x1009 (= z_0_48 (and z_1_48 z_1_49 z_1_46 z_1_47))))
 (=> x_0_G $x1009)))
(assert
 (=> x_0_! (= z_0_49 (not z_1_49))))
(assert
 (let (($x1019 (= z_0_49 z_1_46)))
 (=> x_0_X $x1019)))
(assert
 (=> x_0_F (= z_0_49 (or z_1_49 z_1_46 z_1_47 z_1_48))))
(assert
 (let (($x1028 (= z_0_49 (and z_1_49 z_1_46 z_1_47 z_1_48))))
 (=> x_0_G $x1028)))
(assert
 (=> x_0_! (= z_0_50 (not z_1_50))))
(assert
 (let (($x1040 (= z_0_50 z_1_51)))
 (=> x_0_X $x1040)))
(assert
 (let (($x1048 (= z_0_50 (or z_1_50 z_1_51 z_1_52 z_1_53 z_1_54 z_1_55))))
 (=> x_0_F $x1048)))
(assert
 (let (($x1052 (= z_0_50 (and z_1_50 z_1_51 z_1_52 z_1_53 z_1_54 z_1_55))))
 (=> x_0_G $x1052)))
(assert
 (=> x_0_! (= z_0_51 (not z_1_51))))
(assert
 (let (($x1062 (= z_0_51 z_1_52)))
 (=> x_0_X $x1062)))
(assert
 (let (($x1065 (or z_1_51 z_1_52 z_1_53 z_1_54 z_1_55)))
 (let (($x1066 (= z_0_51 $x1065)))
 (=> x_0_F $x1066))))
(assert
 (let (($x1070 (= z_0_51 (and z_1_51 z_1_52 z_1_53 z_1_54 z_1_55))))
 (=> x_0_G $x1070)))
(assert
 (=> x_0_! (= z_0_52 (not z_1_52))))
(assert
 (let (($x1080 (= z_0_52 z_1_53)))
 (=> x_0_X $x1080)))
(assert
 (=> x_0_F (= z_0_52 (or z_1_52 z_1_53 z_1_54 z_1_55 z_1_51))))
(assert
 (let (($x1089 (= z_0_52 (and z_1_52 z_1_53 z_1_54 z_1_55 z_1_51))))
 (=> x_0_G $x1089)))
(assert
 (=> x_0_! (= z_0_53 (not z_1_53))))
(assert
 (let (($x1099 (= z_0_53 z_1_54)))
 (=> x_0_X $x1099)))
(assert
 (=> x_0_F (= z_0_53 (or z_1_53 z_1_54 z_1_55 z_1_51 z_1_52))))
(assert
 (let (($x1108 (= z_0_53 (and z_1_53 z_1_54 z_1_55 z_1_51 z_1_52))))
 (=> x_0_G $x1108)))
(assert
 (=> x_0_! (= z_0_54 (not z_1_54))))
(assert
 (let (($x1118 (= z_0_54 z_1_55)))
 (=> x_0_X $x1118)))
(assert
 (=> x_0_F (= z_0_54 (or z_1_54 z_1_55 z_1_51 z_1_52 z_1_53))))
(assert
 (let (($x1127 (= z_0_54 (and z_1_54 z_1_55 z_1_51 z_1_52 z_1_53))))
 (=> x_0_G $x1127)))
(assert
 (=> x_0_! (= z_0_55 (not z_1_55))))
(assert
 (let (($x1137 (= z_0_55 z_1_51)))
 (=> x_0_X $x1137)))
(assert
 (=> x_0_F (= z_0_55 (or z_1_55 z_1_51 z_1_52 z_1_53 z_1_54))))
(assert
 (let (($x1146 (= z_0_55 (and z_1_55 z_1_51 z_1_52 z_1_53 z_1_54))))
 (=> x_0_G $x1146)))
(assert
 (=> x_0_! (= z_0_56 (not z_1_56))))
(assert
 (let (($x1158 (= z_0_56 z_1_57)))
 (=> x_0_X $x1158)))
(assert
 (let (($x1162 (= z_0_56 (or z_1_56 z_1_57 z_1_4 z_1_5 z_1_6 z_1_7 z_1_8))))
 (=> x_0_F $x1162)))
(assert
 (let (($x1168 (= z_0_56 (and z_1_56 z_1_57 z_1_4 z_1_5 z_1_6 z_1_7 z_1_8))))
 (=> x_0_G $x1168)))
(assert
 (=> x_0_! (= z_0_57 (not z_1_57))))
(assert
 (let (($x1178 (= z_0_57 z_1_4)))
 (=> x_0_X $x1178)))
(assert
 (=> x_0_F (= z_0_57 (or z_1_57 z_1_4 z_1_5 z_1_6 z_1_7 z_1_8))))
(assert
 (let (($x1188 (= z_0_57 (and z_1_57 z_1_4 z_1_5 z_1_6 z_1_7 z_1_8))))
 (=> x_0_G $x1188)))
(assert
 (=> x_0_! (= z_0_58 (not z_1_58))))
(assert
 (let (($x1200 (= z_0_58 z_1_59)))
 (=> x_0_X $x1200)))
(assert
 (=> x_0_F (= z_0_58 (or z_1_58 z_1_59 z_1_60 z_1_17 z_1_18))))
(assert
 (let (($x1211 (= z_0_58 (and z_1_58 z_1_59 z_1_60 z_1_17 z_1_18))))
 (=> x_0_G $x1211)))
(assert
 (=> x_0_! (= z_0_59 (not z_1_59))))
(assert
 (let (($x1221 (= z_0_59 z_1_60)))
 (=> x_0_X $x1221)))
(assert
 (=> x_0_F (= z_0_59 (or z_1_59 z_1_60 z_1_17 z_1_18))))
(assert
 (let (($x1231 (= z_0_59 (and z_1_59 z_1_60 z_1_17 z_1_18))))
 (=> x_0_G $x1231)))
(assert
 (=> x_0_! (= z_0_60 (not z_1_60))))
(assert
 (let (($x1241 (= z_0_60 z_1_17)))
 (=> x_0_X $x1241)))
(assert
 (=> x_0_F (= z_0_60 (or z_1_60 z_1_17 z_1_18))))
(assert
 (let (($x1251 (= z_0_60 (and z_1_60 z_1_17 z_1_18))))
 (=> x_0_G $x1251)))
(assert
 (=> x_0_! (= z_0_61 (not z_1_61))))
(assert
 (let (($x1263 (= z_0_61 z_1_62)))
 (=> x_0_X $x1263)))
(assert
 (let (($x1267 (= z_0_61 (or z_1_61 z_1_62 z_1_52 z_1_53 z_1_54 z_1_55 z_1_51))))
 (=> x_0_F $x1267)))
(assert
 (let (($x1273 (= z_0_61 (and z_1_61 z_1_62 z_1_52 z_1_53 z_1_54 z_1_55 z_1_51))))
 (=> x_0_G $x1273)))
(assert
 (=> x_0_! (= z_0_62 (not z_1_62))))
(assert
 (let (($x1283 (= z_0_62 z_1_52)))
 (=> x_0_X $x1283)))
(assert
 (=> x_0_F (= z_0_62 (or z_1_62 z_1_52 z_1_53 z_1_54 z_1_55 z_1_51))))
(assert
 (let (($x1293 (= z_0_62 (and z_1_62 z_1_52 z_1_53 z_1_54 z_1_55 z_1_51))))
 (=> x_0_G $x1293)))
(assert
 (=> x_0_! (= z_0_63 (not z_1_63))))
(assert
 (let (($x1304 (= z_0_63 z_1_34)))
 (=> x_0_X $x1304)))
(assert
 (=> x_0_F (= z_0_63 (or z_1_63 z_1_34 z_1_1 z_1_0))))
(assert
 (let (($x1314 (= z_0_63 (and z_1_63 z_1_34 z_1_1 z_1_0))))
 (=> x_0_G $x1314)))
(assert
 (=> x_0_! (= z_0_64 (not z_1_64))))
(assert
 (let (($x1326 (= z_0_64 z_1_65)))
 (=> x_0_X $x1326)))
(assert
 (=> x_0_F (= z_0_64 (or z_1_64 z_1_65 z_1_66 z_1_22 z_1_23 z_1_21))))
(assert
 (let (($x1337 (= z_0_64 (and z_1_64 z_1_65 z_1_66 z_1_22 z_1_23 z_1_21))))
 (=> x_0_G $x1337)))
(assert
 (=> x_0_! (= z_0_65 (not z_1_65))))
(assert
 (let (($x1347 (= z_0_65 z_1_66)))
 (=> x_0_X $x1347)))
(assert
 (=> x_0_F (= z_0_65 (or z_1_65 z_1_66 z_1_22 z_1_23 z_1_21))))
(assert
 (let (($x1357 (= z_0_65 (and z_1_65 z_1_66 z_1_22 z_1_23 z_1_21))))
 (=> x_0_G $x1357)))
(assert
 (=> x_0_! (= z_0_66 (not z_1_66))))
(assert
 (let (($x1367 (= z_0_66 z_1_22)))
 (=> x_0_X $x1367)))
(assert
 (=> x_0_F (= z_0_66 (or z_1_66 z_1_22 z_1_23 z_1_21))))
(assert
 (let (($x1377 (= z_0_66 (and z_1_66 z_1_22 z_1_23 z_1_21))))
 (=> x_0_G $x1377)))
(assert
 (=> x_0_! (= z_0_67 (not z_1_67))))
(assert
 (let (($x1389 (= z_0_67 z_1_68)))
 (=> x_0_X $x1389)))
(assert
 (=> x_0_F (= z_0_67 (or z_1_67 z_1_68 z_1_60 z_1_17 z_1_18))))
(assert
 (let (($x1399 (= z_0_67 (and z_1_67 z_1_68 z_1_60 z_1_17 z_1_18))))
 (=> x_0_G $x1399)))
(assert
 (=> x_0_! (= z_0_68 (not z_1_68))))
(assert
 (let (($x1409 (= z_0_68 z_1_60)))
 (=> x_0_X $x1409)))
(assert
 (=> x_0_F (= z_0_68 (or z_1_68 z_1_60 z_1_17 z_1_18))))
(assert
 (let (($x1419 (= z_0_68 (and z_1_68 z_1_60 z_1_17 z_1_18))))
 (=> x_0_G $x1419)))
(assert
 (=> x_0_! (= z_0_69 (not z_1_69))))
(assert
 (let (($x1430 (= z_0_69 z_1_13)))
 (=> x_0_X $x1430)))
(assert
 (=> x_0_F (= z_0_69 (or z_1_69 z_1_13 z_1_14 z_1_15 z_1_12))))
(assert
 (let (($x1440 (= z_0_69 (and z_1_69 z_1_13 z_1_14 z_1_15 z_1_12))))
 (=> x_0_G $x1440)))
(assert
 (=> x_0_! (= z_0_70 (not z_1_70))))
(assert
 (let (($x1452 (= z_0_70 z_1_71)))
 (=> x_0_X $x1452)))
(assert
 (=> x_0_F (= z_0_70 (or z_1_70 z_1_71 z_1_49 z_1_46 z_1_47 z_1_48))))
(assert
 (let (($x1462 (= z_0_70 (and z_1_70 z_1_71 z_1_49 z_1_46 z_1_47 z_1_48))))
 (=> x_0_G $x1462)))
(assert
 (=> x_0_! (= z_0_71 (not z_1_71))))
(assert
 (let (($x1472 (= z_0_71 z_1_49)))
 (=> x_0_X $x1472)))
(assert
 (=> x_0_F (= z_0_71 (or z_1_71 z_1_49 z_1_46 z_1_47 z_1_48))))
(assert
 (let (($x1482 (= z_0_71 (and z_1_71 z_1_49 z_1_46 z_1_47 z_1_48))))
 (=> x_0_G $x1482)))
(assert
 (=> x_0_! (= z_0_72 (not z_1_72))))
(assert
 (let (($x1493 (= z_0_72 z_1_32)))
 (=> x_0_X $x1493)))
(assert
 (=> x_0_F (= z_0_72 (or z_1_72 z_1_32 z_1_33 z_1_34 z_1_1 z_1_0))))
(assert
 (let (($x1503 (= z_0_72 (and z_1_72 z_1_32 z_1_33 z_1_34 z_1_1 z_1_0))))
 (=> x_0_G $x1503)))
(assert
 (=> x_0_! (= z_0_73 (not z_1_73))))
(assert
 (let (($x1515 (= z_0_73 z_1_74)))
 (=> x_0_X $x1515)))
(assert
 (let (($x1519 (or z_1_73 z_1_74 z_1_75 z_1_71 z_1_49 z_1_46 z_1_47 z_1_48)))
 (=> x_0_F (= z_0_73 $x1519))))
(assert
 (let (($x1525 (and z_1_73 z_1_74 z_1_75 z_1_71 z_1_49 z_1_46 z_1_47 z_1_48)))
 (let (($x1526 (= z_0_73 $x1525)))
 (=> x_0_G $x1526))))
(assert
 (=> x_0_! (= z_0_74 (not z_1_74))))
(assert
 (let (($x1536 (= z_0_74 z_1_75)))
 (=> x_0_X $x1536)))
(assert
 (let (($x1540 (= z_0_74 (or z_1_74 z_1_75 z_1_71 z_1_49 z_1_46 z_1_47 z_1_48))))
 (=> x_0_F $x1540)))
(assert
 (let (($x1546 (= z_0_74 (and z_1_74 z_1_75 z_1_71 z_1_49 z_1_46 z_1_47 z_1_48))))
 (=> x_0_G $x1546)))
(assert
 (=> x_0_! (= z_0_75 (not z_1_75))))
(assert
 (let (($x1556 (= z_0_75 z_1_71)))
 (=> x_0_X $x1556)))
(assert
 (=> x_0_F (= z_0_75 (or z_1_75 z_1_71 z_1_49 z_1_46 z_1_47 z_1_48))))
(assert
 (let (($x1566 (= z_0_75 (and z_1_75 z_1_71 z_1_49 z_1_46 z_1_47 z_1_48))))
 (=> x_0_G $x1566)))
(assert
 (=> x_0_! (= z_0_76 (not z_1_76))))
(assert
 (let (($x1577 (= z_0_76 z_1_48)))
 (=> x_0_X $x1577)))
(assert
 (=> x_0_F (= z_0_76 (or z_1_76 z_1_48 z_1_49 z_1_46 z_1_47))))
(assert
 (let (($x1587 (= z_0_76 (and z_1_76 z_1_48 z_1_49 z_1_46 z_1_47))))
 (=> x_0_G $x1587)))
(assert
 (=> x_0_! (= z_0_77 (not z_1_77))))
(assert
 (let (($x1598 (= z_0_77 z_1_27)))
 (=> x_0_X $x1598)))
(assert
 (=> x_0_F (= z_0_77 (or z_1_77 z_1_27 z_1_0 z_1_1))))
(assert
 (let (($x1608 (= z_0_77 (and z_1_77 z_1_27 z_1_0 z_1_1))))
 (=> x_0_G $x1608)))
(assert
 (=> x_0_! (= z_0_78 (not z_1_78))))
(assert
 (let (($x1620 (= z_0_78 z_1_79)))
 (=> x_0_X $x1620)))
(assert
 (=> x_0_F (= z_0_78 (or z_1_78 z_1_79 z_1_16 z_1_17 z_1_18))))
(assert
 (let (($x1630 (= z_0_78 (and z_1_78 z_1_79 z_1_16 z_1_17 z_1_18))))
 (=> x_0_G $x1630)))
(assert
 (=> x_0_! (= z_0_79 (not z_1_79))))
(assert
 (let (($x1640 (= z_0_79 z_1_16)))
 (=> x_0_X $x1640)))
(assert
 (=> x_0_F (= z_0_79 (or z_1_79 z_1_16 z_1_17 z_1_18))))
(assert
 (let (($x1650 (= z_0_79 (and z_1_79 z_1_16 z_1_17 z_1_18))))
 (=> x_0_G $x1650)))
(assert
 (=> x_0_! (= z_0_80 (not z_1_80))))
(assert
 (let (($x1661 (= z_0_80 z_1_65)))
 (=> x_0_X $x1661)))
(assert
 (=> x_0_F (= z_0_80 (or z_1_80 z_1_65 z_1_66 z_1_22 z_1_23 z_1_21))))
(assert
 (let (($x1671 (= z_0_80 (and z_1_80 z_1_65 z_1_66 z_1_22 z_1_23 z_1_21))))
 (=> x_0_G $x1671)))
(assert
 (=> x_0_! (= z_0_81 (not z_1_81))))
(assert
 (let (($x1683 (= z_0_81 z_1_82)))
 (=> x_0_X $x1683)))
(assert
 (let (($x1686 (or z_1_81 z_1_82 z_1_44 z_1_45 z_1_46 z_1_47 z_1_48 z_1_49)))
 (=> x_0_F (= z_0_81 $x1686))))
(assert
 (let (($x1692 (and z_1_81 z_1_82 z_1_44 z_1_45 z_1_46 z_1_47 z_1_48 z_1_49)))
 (let (($x1693 (= z_0_81 $x1692)))
 (=> x_0_G $x1693))))
(assert
 (=> x_0_! (= z_0_82 (not z_1_82))))
(assert
 (let (($x1703 (= z_0_82 z_1_44)))
 (=> x_0_X $x1703)))
(assert
 (let (($x1707 (= z_0_82 (or z_1_82 z_1_44 z_1_45 z_1_46 z_1_47 z_1_48 z_1_49))))
 (=> x_0_F $x1707)))
(assert
 (let (($x1713 (= z_0_82 (and z_1_82 z_1_44 z_1_45 z_1_46 z_1_47 z_1_48 z_1_49))))
 (=> x_0_G $x1713)))
(assert
 (=> x_0_! (= z_0_83 (not z_1_83))))
(assert
 (let (($x1725 (= z_0_83 z_1_84)))
 (=> x_0_X $x1725)))
(assert
 (let (($x1729 (or z_1_83 z_1_84 z_1_85 z_1_45 z_1_46 z_1_47 z_1_48 z_1_49)))
 (=> x_0_F (= z_0_83 $x1729))))
(assert
 (let (($x1735 (and z_1_83 z_1_84 z_1_85 z_1_45 z_1_46 z_1_47 z_1_48 z_1_49)))
 (let (($x1736 (= z_0_83 $x1735)))
 (=> x_0_G $x1736))))
(assert
 (=> x_0_! (= z_0_84 (not z_1_84))))
(assert
 (let (($x1746 (= z_0_84 z_1_85)))
 (=> x_0_X $x1746)))
(assert
 (let (($x1750 (= z_0_84 (or z_1_84 z_1_85 z_1_45 z_1_46 z_1_47 z_1_48 z_1_49))))
 (=> x_0_F $x1750)))
(assert
 (let (($x1756 (= z_0_84 (and z_1_84 z_1_85 z_1_45 z_1_46 z_1_47 z_1_48 z_1_49))))
 (=> x_0_G $x1756)))
(assert
 (=> x_0_! (= z_0_85 (not z_1_85))))
(assert
 (let (($x1766 (= z_0_85 z_1_45)))
 (=> x_0_X $x1766)))
(assert
 (=> x_0_F (= z_0_85 (or z_1_85 z_1_45 z_1_46 z_1_47 z_1_48 z_1_49))))
(assert
 (let (($x1776 (= z_0_85 (and z_1_85 z_1_45 z_1_46 z_1_47 z_1_48 z_1_49))))
 (=> x_0_G $x1776)))
(assert
 z_1_0)
(assert
 (not z_1_1))
(assert
 (not z_1_2))
(assert
 (not z_1_3))
(assert
 z_1_4)
(assert
 (not z_1_5))
(assert
 z_1_6)
(assert
 (not z_1_7))
(assert
 (not z_1_8))
(assert
 z_1_9)
(assert
 z_1_10)
(assert
 (not z_1_11))
(assert
 z_1_12)
(assert
 z_1_13)
(assert
 (not z_1_14))
(assert
 z_1_15)
(assert
 z_1_16)
(assert
 z_1_17)
(assert
 (not z_1_18))
(assert
 z_1_19)
(assert
 (not z_1_20))
(assert
 (not z_1_21))
(assert
 (not z_1_22))
(assert
 z_1_23)
(assert
 (not z_1_24))
(assert
 (not z_1_25))
(assert
 (not z_1_26))
(assert
 z_1_27)
(assert
 (not z_1_28))
(assert
 (not z_1_29))
(assert
 (not z_1_30))
(assert
 z_1_31)
(assert
 z_1_32)
(assert
 (not z_1_33))
(assert
 (not z_1_34))
(assert
 z_1_35)
(assert
 (not z_1_36))
(assert
 z_1_37)
(assert
 z_1_38)
(assert
 z_1_39)
(assert
 z_1_40)
(assert
 (not z_1_41))
(assert
 (not z_1_42))
(assert
 (not z_1_43))
(assert
 (not z_1_44))
(assert
 z_1_45)
(assert
 z_1_46)
(assert
 z_1_47)
(assert
 (not z_1_48))
(assert
 (not z_1_49))
(assert
 z_1_50)
(assert
 z_1_51)
(assert
 (not z_1_52))
(assert
 (not z_1_53))
(assert
 z_1_54)
(assert
 z_1_55)
(assert
 z_1_56)
(assert
 z_1_57)
(assert
 z_1_58)
(assert
 (not z_1_59))
(assert
 (not z_1_60))
(assert
 z_1_61)
(assert
 (not z_1_62))
(assert
 z_1_63)
(assert
 z_1_64)
(assert
 (not z_1_65))
(assert
 z_1_66)
(assert
 (not z_1_67))
(assert
 z_1_68)
(assert
 (not z_1_69))
(assert
 (not z_1_70))
(assert
 z_1_71)
(assert
 z_1_72)
(assert
 (not z_1_73))
(assert
 (not z_1_74))
(assert
 z_1_75)
(assert
 (not z_1_76))
(assert
 z_1_77)
(assert
 (not z_1_78))
(assert
 (not z_1_79))
(assert
 (not z_1_80))
(assert
 (not z_1_81))
(assert
 z_1_82)
(assert
 (not z_1_83))
(assert
 (not z_1_84))
(assert
 z_1_85)
(check-sat)

